data/solutions/recovery/wellformed/moderate/flexible/wellformed_moderate_instance53/12.sol
Elapsed time: 0.03
Upper bound: 4248.0
Planning weighted value: 132730.0
C[0]=4248.0
C[1]=4238.0
C[2]=4072.0
C[3]=4003.0
C[4]=3778.0
y[0]=1
y[1]=1
y[2]=1
y[3]=0
y[4]=3
y[5]=0
y[6]=4
y[7]=3
y[8]=2
y[9]=3
y[10]=3
y[11]=4
y[12]=1
y[13]=1
y[14]=2
y[15]=2
y[16]=2
y[17]=4
y[18]=0
y[19]=4
